c TW = 8
p tw 16 40
1 2
1 11
1 14
1 7
1 9
2 16
2 4
2 5
2 10
11 12
12 14
12 15
13 14
14 16
15 16
3 11
3 13
3 16
3 4
3 9
4 12
4 6
4 7
5 11
5 13
5 15
5 6
6 14
6 8
6 9
7 13
7 15
7 8
8 11
8 16
8 10
9 15
9 10
10 12
10 13
